Minimize
  - 10 y_0 - 15 y_1 - 10 y_2 - 7 y_3 - 6 y_4 - 13 y_5 - 10 y_6 - 3 y_7
   - 8 y_8 - 13 y_9 - 11 y_10 - 12 y_11 - 5 y_12 - 9 y_13 - 7 y_14
   - 12 y_15 - 9 y_16 - 14 y_17 - 8 y_18 - 13 y_19 - 11 y_20 - 6 y_22
   - 14 y_23 - 12 y_24 - 13 y_25 - 5 y_26 - 9 y_27 - 2 y_28 - 9 y_29
   - 17 y_30 - 7 y_31 - 12 y_32 - 12 y_33 - 15 y_34 - 9 y_35 - 14 y_36
   - 12 y_37 - 7 y_38 - 6 y_39 - 10 y_40 - 3 y_41 - 10 y_42 - 13 y_43
   - 7 y_44 - 6 y_45 - 13 y_46 - 11 y_47 - 11 y_48 - 11 y_49 + 38 x_0_4
   + 92 x_0_5 + 46 x_0_6 + 52 x_0_7 + 48 x_0_8 + 86 x_0_9 + 29 x_0_10
   + 79 x_0_11 + 66 x_0_14 + 21 x_0_16 + 90 x_0_17 + 90 x_0_23 + 57 x_0_25
   + 69 x_0_29 + 58 x_0_30 + 63 x_0_31 + 84 x_0_32 + 86 x_0_33 + 50 x_0_34
   + 27 x_0_35 + 16 x_0_36 + 60 x_0_38 + 27 x_0_41 + 5 x_0_42 + 23 x_0_44
   + 49 x_0_45 + 51 x_0_46 + 82 x_0_47 + 82 x_0_49 + 89 x_1_3 + 22 x_1_6
   + 70 x_1_7 + 34 x_1_8 + 82 x_1_10 + 59 x_1_11 + 95 x_1_13 + 87 x_1_15
   + 74 x_1_17 + 94 x_1_18 + 45 x_1_19 + 102 x_1_20 + 62 x_1_21 + 37 x_1_22
   + 74 x_1_23 + 39 x_1_24 + 83 x_1_26 + 60 x_1_28 + 63 x_1_29 + 6 x_1_30
   + 90 x_1_31 + 80 x_1_32 + 93 x_1_33 + 8 x_1_34 + 29 x_1_35 + 62 x_1_36
   + 71 x_1_37 + 69 x_1_39 + 65 x_1_40 + 61 x_1_42 + 57 x_1_43 + 37 x_1_44
   + 84 x_1_45 + 8 x_1_46 + 80 x_1_48 + 100 x_1_49 + 63 x_2_3 + 23 x_2_4
   + 22 x_2_6 + 40 x_2_7 + 13 x_2_8 + 77 x_2_10 + 37 x_2_12 + 72 x_2_13
   + 36 x_2_14 + 82 x_2_15 + 42 x_2_16 + 36 x_2_17 + 61 x_2_19 + 81 x_2_20
   + 38 x_2_21 + 36 x_2_23 + 26 x_2_25 + 56 x_2_26 + 67 x_2_27 + 23 x_2_29
   + 46 x_2_30 + 40 x_2_32 + 54 x_2_33 + 45 x_2_34 + 38 x_2_35 + 74 x_2_36
   + 75 x_2_37 + 20 x_2_38 + 59 x_2_39 + 25 x_2_40 + 47 x_2_41 + 60 x_2_45
   + 53 x_2_47 + 76 x_2_48 + 51 x_3_4 + 69 x_3_6 + 24 x_3_7 + 59 x_3_8
   + 63 x_3_9 + 44 x_3_10 + 68 x_3_11 + 46 x_3_12 + 11 x_3_13 + 35 x_3_14
   + 46 x_3_15 + 61 x_3_16 + 69 x_3_17 + 5 x_3_18 + 73 x_3_19 + 21 x_3_20
   + 53 x_3_22 + 69 x_3_23 + 71 x_3_24 + 81 x_3_25 + 7 x_3_26 + 12 x_3_27
   + 30 x_3_28 + 51 x_3_29 + 8 x_3_31 + 54 x_3_32 + 43 x_3_33 + 89 x_3_34
   + 64 x_3_35 + 70 x_3_36 + 35 x_3_39 + 56 x_3_40 + 57 x_3_42 + 7 x_3_45
   + 82 x_3_46 + 39 x_3_47 + 31 x_3_49 + 61 x_4_5 + 31 x_4_7 + 11 x_4_8
   + 50 x_4_9 + 41 x_4_11 + 15 x_4_12 + 37 x_4_14 + 22 x_4_16 + 53 x_4_17
   + 55 x_4_18 + 42 x_4_19 + 65 x_4_20 + 36 x_4_24 + 31 x_4_25 + 44 x_4_26
   + 58 x_4_27 + 23 x_4_28 + 51 x_4_31 + 51 x_4_32 + 58 x_4_33 + 40 x_4_34
   + 20 x_4_35 + 53 x_4_37 + 26 x_4_38 + 37 x_4_39 + 26 x_4_41 + 43 x_4_42
   + 49 x_4_43 + 17 x_4_44 + 46 x_4_45 + 31 x_4_46 + 56 x_4_47 + 62 x_4_49
   + 72 x_5_6 + 41 x_5_7 + 59 x_5_8 + 92 x_5_10 + 70 x_5_12 + 65 x_5_13
   + 96 x_5_15 + 57 x_5_18 + 74 x_5_20 + 53 x_5_21 + 79 x_5_25 + 46 x_5_27
   + 98 x_5_30 + 45 x_5_31 + 12 x_5_32 + 81 x_5_35 + 107 x_5_36 + 36 x_5_38
   + 77 x_5_39 + 28 x_5_40 + 66 x_5_41 + 106 x_5_43 + 85 x_5_46 + 93 x_5_48
   + 28 x_5_49 + 48 x_6_7 + 13 x_6_8 + 56 x_6_9 + 43 x_6_11 + 29 x_6_12
   + 51 x_6_14 + 26 x_6_16 + 74 x_6_18 + 83 x_6_20 + 15 x_6_22 + 58 x_6_23
   + 36 x_6_24 + 13 x_6_25 + 43 x_6_29 + 69 x_6_31 + 61 x_6_32 + 24 x_6_34
   + 19 x_6_35 + 62 x_6_37 + 53 x_6_39 + 43 x_6_41 + 51 x_6_42 + 53 x_6_43
   + 23 x_6_44 + 64 x_6_45 + 67 x_6_48 + 78 x_6_49 + 37 x_7_8 + 43 x_7_9
   + 52 x_7_10 + 32 x_7_12 + 34 x_7_13 + 16 x_7_14 + 47 x_7_16 + 48 x_7_17
   + 29 x_7_18 + 64 x_7_19 + 13 x_7_21 + 33 x_7_22 + 49 x_7_23 + 60 x_7_24
   + 60 x_7_25 + 17 x_7_26 + 28 x_7_27 + 19 x_7_28 + 28 x_7_29 + 75 x_7_30
   + 21 x_7_31 + 36 x_7_32 + 34 x_7_33 + 70 x_7_34 + 48 x_7_35 + 67 x_7_36
   + 23 x_7_38 + 35 x_7_40 + 26 x_7_41 + 54 x_7_42 + 66 x_7_43 + 41 x_7_44
   + 22 x_7_45 + 61 x_7_46 + 30 x_7_47 + 52 x_7_48 + 33 x_7_49 + 45 x_8_9
   + 66 x_8_10 + 33 x_8_11 + 26 x_8_12 + 66 x_8_13 + 38 x_8_14 + 71 x_8_15
   + 49 x_8_19 + 32 x_8_21 + 8 x_8_22 + 43 x_8_24 + 23 x_8_25 + 52 x_8_26
   + 30 x_8_29 + 40 x_8_30 + 58 x_8_31 + 48 x_8_32 + 59 x_8_33 + 37 x_8_34
   + 25 x_8_35 + 61 x_8_36 + 63 x_8_37 + 48 x_8_39 + 57 x_8_43 + 25 x_8_44
   + 55 x_8_45 + 26 x_8_46 + 57 x_8_47 + 65 x_8_48 + 94 x_9_10 + 16 x_9_11
   + 63 x_9_12 + 75 x_9_13 + 28 x_9_14 + 5 x_9_17 + 92 x_9_19 + 84 x_9_20
   + 52 x_9_21 + 50 x_9_22 + 6 x_9_23 + 86 x_9_24 + 58 x_9_26 + 60 x_9_27
   + 17 x_9_29 + 80 x_9_30 + 57 x_9_31 + 31 x_9_33 + 101 x_9_36 + 26 x_9_38
   + 11 x_9_40 + 65 x_9_41 + 99 x_9_43 + 67 x_9_44 + 65 x_9_45 + 67 x_9_46
   + 94 x_9_48 + 47 x_9_49 + 91 x_10_11 + 41 x_10_12 + 68 x_10_14
   + 5 x_10_15 + 47 x_10_16 + 99 x_10_17 + 44 x_10_18 + 46 x_10_19
   + 36 x_10_20 + 42 x_10_21 + 58 x_10_22 + 99 x_10_23 + 81 x_10_25
   + 44 x_10_26 + 56 x_10_27 + 77 x_10_29 + 86 x_10_30 + 88 x_10_32
   + 84 x_10_33 + 78 x_10_34 + 53 x_10_35 + 35 x_10_36 + 21 x_10_37
   + 18 x_10_39 + 84 x_10_40 + 30 x_10_41 + 25 x_10_42 + 38 x_10_43
   + 37 x_10_45 + 77 x_10_46 + 3 x_10_48 + 74 x_10_49 + 55 x_11_12
   + 79 x_11_13 + 34 x_11_14 + 96 x_11_15 + 63 x_11_16 + 16 x_11_17
   + 82 x_11_19 + 50 x_11_21 + 40 x_11_22 + 62 x_11_26 + 55 x_11_28
   + 65 x_11_30 + 63 x_11_31 + 44 x_11_33 + 93 x_11_36 + 73 x_11_39
   + 13 x_11_40 + 61 x_11_41 + 84 x_11_42 + 90 x_11_43 + 58 x_11_44
   + 45 x_11_47 + 91 x_11_48 + 50 x_12_13 + 44 x_12_14 + 46 x_12_15
   + 66 x_12_17 + 32 x_12_19 + 56 x_12_20 + 18 x_12_22 + 67 x_12_23
   + 28 x_12_24 + 40 x_12_26 + 46 x_12_29 + 49 x_12_31 + 65 x_12_33
   + 18 x_12_35 + 37 x_12_38 + 24 x_12_39 + 52 x_12_40 + 28 x_12_42
   + 39 x_12_46 + 62 x_12_47 + 65 x_12_49 + 46 x_13_14 + 63 x_13_16
   + 80 x_13_17 + 8 x_13_18 + 73 x_13_19 + 9 x_13_20 + 35 x_13_21
   + 81 x_13_23 + 88 x_13_25 + 21 x_13_27 + 35 x_13_28 + 100 x_13_30
   + 19 x_13_31 + 65 x_13_32 + 55 x_13_33 + 68 x_13_35 + 68 x_13_36
   + 56 x_13_37 + 56 x_13_38 + 33 x_13_39 + 67 x_13_40 + 35 x_13_41
   + 55 x_13_42 + 59 x_13_44 + 39 x_13_48 + 41 x_13_49 + 72 x_14_15
   + 58 x_14_16 + 34 x_14_17 + 40 x_14_18 + 27 x_14_21 + 38 x_14_22
   + 34 x_14_23 + 71 x_14_24 + 61 x_14_25 + 30 x_14_26 + 34 x_14_27
   + 34 x_14_28 + 79 x_14_30 + 29 x_14_31 + 21 x_14_33 + 75 x_14_34
   + 57 x_14_35 + 81 x_14_36 + 76 x_14_37 + 51 x_14_39 + 41 x_14_41
   + 69 x_14_42 + 51 x_14_44 + 36 x_14_45 + 68 x_14_48 + 28 x_14_49
   + 52 x_15_16 + 103 x_15_17 + 63 x_15_22 + 86 x_15_25 + 47 x_15_26
   + 58 x_15_27 + 41 x_15_28 + 82 x_15_29 + 54 x_15_31 + 87 x_15_33
   + 83 x_15_34 + 58 x_15_35 + 38 x_15_36 + 23 x_15_37 + 74 x_15_38
   + 23 x_15_39 + 89 x_15_40 + 29 x_15_42 + 41 x_15_43 + 40 x_15_45
   + 83 x_15_47 + 7 x_15_48 + 77 x_15_49 + 20 x_16_19 + 14 x_16_24
   + 36 x_16_25 + 55 x_16_26 + 71 x_16_27 + 31 x_16_28 + 56 x_16_29
   + 39 x_16_30 + 64 x_16_31 + 73 x_16_32 + 79 x_16_33 + 32 x_16_34
   + 7 x_16_35 + 37 x_16_37 + 48 x_16_38 + 34 x_16_39 + 61 x_16_40
   + 28 x_16_41 + 26 x_16_42 + 28 x_16_43 + 6 x_16_44 + 30 x_16_46
   + 45 x_16_48 + 80 x_16_49 + 73 x_17_18 + 95 x_17_19 + 56 x_17_21
   + 52 x_17_22 + x_17_23 + 63 x_17_26 + 63 x_17_28 + 21 x_17_29
   + 80 x_17_30 + 62 x_17_31 + 18 x_17_32 + 35 x_17_33 + 80 x_17_34
   + 72 x_17_35 + 105 x_17_36 + 30 x_17_38 + 15 x_17_40 + 69 x_17_41
   + 94 x_17_42 + 70 x_17_44 + 70 x_17_45 + 68 x_17_46 + 38 x_17_47
   + 98 x_17_48 + 76 x_18_19 + 17 x_18_20 + 58 x_18_22 + 74 x_18_23
   + 86 x_18_25 + 12 x_18_26 + 12 x_18_27 + 35 x_18_28 + 56 x_18_29
   + 46 x_18_33 + 93 x_18_34 + 61 x_18_37 + 61 x_18_40 + 59 x_18_42
   + 60 x_18_44 + 11 x_18_45 + 42 x_18_47 + 46 x_18_48 + 32 x_18_49
   + 76 x_19_20 + 43 x_19_22 + 95 x_19_23 + 7 x_19_24 + 50 x_19_25
   + 45 x_19_28 + 92 x_19_32 + 97 x_19_33 + 38 x_19_34 + 24 x_19_35
   + 17 x_19_36 + 28 x_19_37 + 40 x_19_39 + 81 x_19_40 + 41 x_19_41
   + 21 x_19_42 + 12 x_19_43 + 25 x_19_44 + 65 x_19_45 + 43 x_19_48
   + 43 x_20_21 + 68 x_20_22 + 95 x_20_25 + 42 x_20_28 + 71 x_20_29
   + 106 x_20_30 + 28 x_20_31 + 74 x_20_32 + 63 x_20_33 + 100 x_20_34
   + 74 x_20_35 + 66 x_20_38 + 36 x_20_39 + 77 x_20_40 + 57 x_20_42
   + 71 x_20_43 + 21 x_20_45 + 94 x_20_46 + 59 x_20_47 + 48 x_20_49
   + 26 x_21_22 + 57 x_21_23 + 48 x_21_24 + 53 x_21_25 + 21 x_21_26
   + 36 x_21_27 + 35 x_21_29 + 29 x_21_31 + 47 x_21_33 + 61 x_21_34
   + 27 x_21_38 + 41 x_21_40 + 14 x_21_41 + 42 x_21_42 + 54 x_21_43
   + 54 x_21_46 + 43 x_21_47 + 45 x_21_49 + 53 x_22_23 + 37 x_22_24
   + 28 x_22_25 + 26 x_22_28 + 34 x_22_29 + 42 x_22_30 + 60 x_22_33
   + 38 x_22_34 + 54 x_22_36 + 55 x_22_37 + 40 x_22_39 + 39 x_22_40
   + 29 x_22_41 + 45 x_22_42 + 50 x_22_43 + 18 x_22_44 + 49 x_22_45
   + 29 x_22_46 + 57 x_22_47 + 64 x_22_49 + 66 x_23_27 + 63 x_23_28
   + 22 x_23_29 + 80 x_23_30 + 63 x_23_31 + 18 x_23_32 + 36 x_23_33
   + 105 x_23_36 + 104 x_23_37 + 30 x_23_38 + 82 x_23_39 + 15 x_23_40
   + 70 x_23_41 + 102 x_23_43 + 70 x_23_44 + 70 x_23_45 + 38 x_23_47
   + 99 x_23_48 + 53 x_23_49 + 44 x_24_25 + 66 x_24_26 + 82 x_24_27
   + 42 x_24_28 + 41 x_24_30 + 75 x_24_31 + 18 x_24_35 + 33 x_24_37
   + 62 x_24_38 + 75 x_24_40 + 39 x_24_41 + 18 x_24_43 + 20 x_24_44
   + 64 x_24_45 + 36 x_24_46 + 46 x_24_48 + 93 x_24_49 + 74 x_25_26
   + 87 x_25_27 + 53 x_25_28 + 20 x_25_30 + 81 x_25_31 + 80 x_25_33
   + 21 x_25_34 + 29 x_25_35 + 73 x_25_37 + 45 x_25_38 + 65 x_25_39
   + 62 x_25_42 + 61 x_25_43 + 35 x_25_44 + 76 x_25_45 + 88 x_25_49
   + 25 x_26_28 + 45 x_26_29 + 88 x_26_30 + 83 x_26_34 + 58 x_26_35
   + 32 x_26_39 + 28 x_26_41 + 54 x_26_42 + 68 x_26_43 + 50 x_26_44
   + 7 x_26_45 + 75 x_26_46 + 45 x_26_48 + 30 x_26_49 + 40 x_27_28
   + 51 x_27_29 + 102 x_27_30 + 7 x_27_31 + 49 x_27_32 + 36 x_27_33
   + 97 x_27_34 + 73 x_27_35 + 48 x_27_38 + 55 x_27_40 + 83 x_27_43
   + 65 x_27_44 + 89 x_27_46 + 57 x_27_48 + 20 x_27_49 + 41 x_28_29
   + 33 x_28_31 + 54 x_28_33 + 59 x_28_34 + 33 x_28_38 + 19 x_28_39
   + 48 x_28_40 + 7 x_28_41 + 47 x_28_43 + 25 x_28_44 + 52 x_28_46
   + 50 x_28_47 + 51 x_28_49 + 18 x_29_32 + 67 x_29_34 + 54 x_29_35
   + 84 x_29_36 + 6 x_29_40 + 48 x_29_41 + 73 x_29_42 + 82 x_29_43
   + 31 x_29_47 + 43 x_29_49 + 86 x_30_32 + 99 x_30_33 + 33 x_30_35
   + 63 x_30_36 + 73 x_30_37 + 73 x_30_39 + 63 x_30_42 + 58 x_30_43
   + 42 x_30_44 + 89 x_30_45 + 14 x_30_46 + 84 x_30_48 + 106 x_30_49
   + 35 x_31_33 + 90 x_31_34 + 66 x_31_35 + 77 x_31_36 + 67 x_31_37
   + 42 x_31_38 + 41 x_31_39 + 51 x_31_40 + 77 x_31_43 + 59 x_31_44
   + 82 x_31_46 + 31 x_31_47 + 53 x_31_48 + 23 x_31_49 + 18 x_32_33
   + 85 x_32_34 + 96 x_32_37 + 26 x_32_38 + 16 x_32_40 + 60 x_32_41
   + 98 x_32_43 + 67 x_32_44 + 56 x_32_45 + 73 x_32_46 + 20 x_32_47
   + 78 x_33_35 + 101 x_33_36 + 95 x_33_37 + 35 x_33_38 + 69 x_33_39
   + 32 x_33_40 + 60 x_33_41 + 89 x_33_42 + 85 x_33_46 + 5 x_33_47
   + 84 x_33_48 + 18 x_33_49 + 26 x_34_35 + 55 x_34_36 + 65 x_34_37
   + 61 x_34_38 + 65 x_34_39 + 55 x_34_42 + 50 x_34_43 + 34 x_34_44
   + 83 x_34_45 + 12 x_34_46 + 94 x_34_47 + 102 x_34_49 + 43 x_35_37
   + 46 x_35_38 + 39 x_35_39 + 33 x_35_41 + 33 x_35_42 + 33 x_35_43
   + 58 x_35_45 + 76 x_35_47 + 76 x_36_38 + 36 x_36_39 + 90 x_36_40
   + 42 x_36_41 + 13 x_36_42 + 5 x_36_43 + 36 x_36_44 + 63 x_36_45
   + 59 x_36_46 + 98 x_36_47 + 97 x_36_49 + 73 x_37_38 + 88 x_37_40
   + 35 x_37_41 + 11 x_37_42 + 18 x_37_43 + 39 x_37_44 + 53 x_37_45
   + 66 x_37_46 + 91 x_37_47 + 18 x_37_48 + 89 x_37_49 + 15 x_38_40
   + 64 x_38_42 + 73 x_38_43 + 42 x_38_44 + 45 x_38_45 + 49 x_38_46
   + 34 x_38_47 + 69 x_38_48 + 12 x_39_41 + 27 x_39_45 + 62 x_39_46
   + 17 x_39_48 + 54 x_40_41 + 79 x_40_42 + 88 x_40_43 + 56 x_40_44
   + 58 x_40_46 + 29 x_41_42 + 41 x_41_43 + 24 x_41_44 + 26 x_41_45
   + 53 x_41_46 + 56 x_41_47 + 30 x_41_48 + 56 x_41_49 + 14 x_42_43
   + 28 x_42_44 + 50 x_42_45 + 56 x_42_46 + 85 x_42_47 + 23 x_42_48
   + 84 x_42_49 + 32 x_43_44 + 64 x_43_45 + 54 x_43_46 + 97 x_43_47
   + 36 x_43_48 + 97 x_43_49 + 49 x_44_45 + 31 x_44_46 + 44 x_44_48
   + 76 x_45_46 + 43 x_45_47 + 38 x_45_48 + 37 x_45_49 + 83 x_46_47
   + 75 x_46_48 + 92 x_46_49 + 80 x_47_48 + 15 x_47_49 + 75 x_48_49
   + 482 Constant
Subject To
 c_0: y_20 = 1
 c_1_0: y_0 + y_42 >= 1
 c_1_1: y_1 + y_30 + y_34 + y_46 >= 1
 c_1_2: y_2 >= 1
 c_1_3: y_3 + y_18 + y_26 + y_31 + y_45 >= 1
 c_1_4: y_4 + y_22 >= 1
 c_1_5: y_5 >= 1
 c_1_6: y_6 >= 1
 c_1_7: y_7 >= 1
 c_1_8: y_8 + y_22 >= 1
 c_1_9: y_9 + y_17 + y_23 >= 1
 c_1_10: y_10 + y_15 + y_48 >= 1
 c_1_11: y_11 >= 1
 c_1_12: y_12 + y_44 >= 1
 c_1_13: y_13 + y_18 + y_20 >= 1
 c_1_14: y_14 >= 1
 c_1_15: y_10 + y_15 + y_48 >= 1
 c_1_16: y_16 + y_35 + y_44 >= 1
 c_1_17: y_9 + y_17 + y_23 >= 1
 c_1_18: y_3 + y_13 + y_18 >= 1
 c_1_19: y_19 + y_24 >= 1
 c_1_20: y_13 + y_20 >= 1
 c_1_21: y_21 + y_28 >= 1
 c_1_22: y_4 + y_8 + y_22 >= 1
 c_1_23: y_9 + y_17 + y_23 >= 1
 c_1_24: y_19 + y_24 >= 1
 c_1_25: y_25 + y_46 >= 1
 c_1_26: y_3 + y_26 + y_31 + y_45 >= 1
 c_1_27: y_27 + y_31 >= 1
 c_1_28: y_21 + y_28 + y_41 >= 1
 c_1_29: y_29 + y_38 + y_40 >= 1
 c_1_30: y_1 + y_30 + y_34 >= 1
 c_1_31: y_3 + y_26 + y_27 + y_31 >= 1
 c_1_32: y_32 >= 1
 c_1_33: y_33 + y_47 >= 1
 c_1_34: y_1 + y_30 + y_34 >= 1
 c_1_35: y_16 + y_35 + y_44 >= 1
 c_1_36: y_36 + y_43 >= 1
 c_1_37: y_37 >= 1
 c_1_38: y_29 + y_38 >= 1
 c_1_39: y_39 >= 1
 c_1_40: y_29 + y_40 >= 1
 c_1_41: y_28 + y_41 >= 1
 c_1_42: y_0 + y_42 >= 1
 c_1_43: y_36 + y_43 >= 1
 c_1_44: y_12 + y_16 + y_35 + y_44 >= 1
 c_1_45: y_3 + y_26 + y_45 >= 1
 c_1_46: y_1 + y_25 + y_46 >= 1
 c_1_47: y_33 + y_47 >= 1
 c_1_48: y_10 + y_15 + y_48 >= 1
 c_1_49: y_49 >= 1
 c_2_0: - 2 y_0 + x_0_4 + x_0_5 + x_0_6 + x_0_7 + x_0_8 + x_0_9 + x_0_10
   + x_0_11 + x_0_14 + x_0_16 + x_0_17 + x_0_23 + x_0_25 + x_0_29 + x_0_30
   + x_0_31 + x_0_32 + x_0_33 + x_0_34 + x_0_35 + x_0_36 + x_0_38 + x_0_41
   + x_0_42 + x_0_44 + x_0_45 + x_0_46 + x_0_47 + x_0_49 = 0
 c_2_1: - 2 y_1 + x_1_3 + x_1_6 + x_1_7 + x_1_8 + x_1_10 + x_1_11 + x_1_13
   + x_1_15 + x_1_17 + x_1_18 + x_1_19 + x_1_20 + x_1_21 + x_1_22 + x_1_23
   + x_1_24 + x_1_26 + x_1_28 + x_1_29 + x_1_30 + x_1_31 + x_1_32 + x_1_33
   + x_1_34 + x_1_35 + x_1_36 + x_1_37 + x_1_39 + x_1_40 + x_1_42 + x_1_43
   + x_1_44 + x_1_45 + x_1_46 + x_1_48 + x_1_49 = 0
 c_2_2: - 2 y_2 + x_2_3 + x_2_4 + x_2_6 + x_2_7 + x_2_8 + x_2_10 + x_2_12
   + x_2_13 + x_2_14 + x_2_15 + x_2_16 + x_2_17 + x_2_19 + x_2_20 + x_2_21
   + x_2_23 + x_2_25 + x_2_26 + x_2_27 + x_2_29 + x_2_30 + x_2_32 + x_2_33
   + x_2_34 + x_2_35 + x_2_36 + x_2_37 + x_2_38 + x_2_39 + x_2_40 + x_2_41
   + x_2_45 + x_2_47 + x_2_48 = 0
 c_2_3: - 2 y_3 + x_1_3 + x_2_3 + x_3_4 + x_3_6 + x_3_7 + x_3_8 + x_3_9
   + x_3_10 + x_3_11 + x_3_12 + x_3_13 + x_3_14 + x_3_15 + x_3_16 + x_3_17
   + x_3_18 + x_3_19 + x_3_20 + x_3_22 + x_3_23 + x_3_24 + x_3_25 + x_3_26
   + x_3_27 + x_3_28 + x_3_29 + x_3_31 + x_3_32 + x_3_33 + x_3_34 + x_3_35
   + x_3_36 + x_3_39 + x_3_40 + x_3_42 + x_3_45 + x_3_46 + x_3_47 + x_3_49
   = 0
 c_2_4: - 2 y_4 + x_0_4 + x_2_4 + x_3_4 + x_4_5 + x_4_7 + x_4_8 + x_4_9
   + x_4_11 + x_4_12 + x_4_14 + x_4_16 + x_4_17 + x_4_18 + x_4_19 + x_4_20
   + x_4_24 + x_4_25 + x_4_26 + x_4_27 + x_4_28 + x_4_31 + x_4_32 + x_4_33
   + x_4_34 + x_4_35 + x_4_37 + x_4_38 + x_4_39 + x_4_41 + x_4_42 + x_4_43
   + x_4_44 + x_4_45 + x_4_46 + x_4_47 + x_4_49 = 0
 c_2_5: - 2 y_5 + x_0_5 + x_4_5 + x_5_6 + x_5_7 + x_5_8 + x_5_10 + x_5_12
   + x_5_13 + x_5_15 + x_5_18 + x_5_20 + x_5_21 + x_5_25 + x_5_27 + x_5_30
   + x_5_31 + x_5_32 + x_5_35 + x_5_36 + x_5_38 + x_5_39 + x_5_40 + x_5_41
   + x_5_43 + x_5_46 + x_5_48 + x_5_49 = 0
 c_2_6: - 2 y_6 + x_0_6 + x_1_6 + x_2_6 + x_3_6 + x_5_6 + x_6_7 + x_6_8
   + x_6_9 + x_6_11 + x_6_12 + x_6_14 + x_6_16 + x_6_18 + x_6_20 + x_6_22
   + x_6_23 + x_6_24 + x_6_25 + x_6_29 + x_6_31 + x_6_32 + x_6_34 + x_6_35
   + x_6_37 + x_6_39 + x_6_41 + x_6_42 + x_6_43 + x_6_44 + x_6_45 + x_6_48
   + x_6_49 = 0
 c_2_7: - 2 y_7 + x_0_7 + x_1_7 + x_2_7 + x_3_7 + x_4_7 + x_5_7 + x_6_7
   + x_7_8 + x_7_9 + x_7_10 + x_7_12 + x_7_13 + x_7_14 + x_7_16 + x_7_17
   + x_7_18 + x_7_19 + x_7_21 + x_7_22 + x_7_23 + x_7_24 + x_7_25 + x_7_26
   + x_7_27 + x_7_28 + x_7_29 + x_7_30 + x_7_31 + x_7_32 + x_7_33 + x_7_34
   + x_7_35 + x_7_36 + x_7_38 + x_7_40 + x_7_41 + x_7_42 + x_7_43 + x_7_44
   + x_7_45 + x_7_46 + x_7_47 + x_7_48 + x_7_49 = 0
 c_2_8: - 2 y_8 + x_0_8 + x_1_8 + x_2_8 + x_3_8 + x_4_8 + x_5_8 + x_6_8
   + x_7_8 + x_8_9 + x_8_10 + x_8_11 + x_8_12 + x_8_13 + x_8_14 + x_8_15
   + x_8_19 + x_8_21 + x_8_22 + x_8_24 + x_8_25 + x_8_26 + x_8_29 + x_8_30
   + x_8_31 + x_8_32 + x_8_33 + x_8_34 + x_8_35 + x_8_36 + x_8_37 + x_8_39
   + x_8_43 + x_8_44 + x_8_45 + x_8_46 + x_8_47 + x_8_48 = 0
 c_2_9: - 2 y_9 + x_0_9 + x_3_9 + x_4_9 + x_6_9 + x_7_9 + x_8_9 + x_9_10
   + x_9_11 + x_9_12 + x_9_13 + x_9_14 + x_9_17 + x_9_19 + x_9_20 + x_9_21
   + x_9_22 + x_9_23 + x_9_24 + x_9_26 + x_9_27 + x_9_29 + x_9_30 + x_9_31
   + x_9_33 + x_9_36 + x_9_38 + x_9_40 + x_9_41 + x_9_43 + x_9_44 + x_9_45
   + x_9_46 + x_9_48 + x_9_49 = 0
 c_2_10: - 2 y_10 + x_0_10 + x_1_10 + x_2_10 + x_3_10 + x_5_10 + x_7_10
   + x_8_10 + x_9_10 + x_10_11 + x_10_12 + x_10_14 + x_10_15 + x_10_16
   + x_10_17 + x_10_18 + x_10_19 + x_10_20 + x_10_21 + x_10_22 + x_10_23
   + x_10_25 + x_10_26 + x_10_27 + x_10_29 + x_10_30 + x_10_32 + x_10_33
   + x_10_34 + x_10_35 + x_10_36 + x_10_37 + x_10_39 + x_10_40 + x_10_41
   + x_10_42 + x_10_43 + x_10_45 + x_10_46 + x_10_48 + x_10_49 = 0
 c_2_11: - 2 y_11 + x_0_11 + x_1_11 + x_3_11 + x_4_11 + x_6_11 + x_8_11
   + x_9_11 + x_10_11 + x_11_12 + x_11_13 + x_11_14 + x_11_15 + x_11_16
   + x_11_17 + x_11_19 + x_11_21 + x_11_22 + x_11_26 + x_11_28 + x_11_30
   + x_11_31 + x_11_33 + x_11_36 + x_11_39 + x_11_40 + x_11_41 + x_11_42
   + x_11_43 + x_11_44 + x_11_47 + x_11_48 = 0
 c_2_12: - 2 y_12 + x_2_12 + x_3_12 + x_4_12 + x_5_12 + x_6_12 + x_7_12
   + x_8_12 + x_9_12 + x_10_12 + x_11_12 + x_12_13 + x_12_14 + x_12_15
   + x_12_17 + x_12_19 + x_12_20 + x_12_22 + x_12_23 + x_12_24 + x_12_26
   + x_12_29 + x_12_31 + x_12_33 + x_12_35 + x_12_38 + x_12_39 + x_12_40
   + x_12_42 + x_12_46 + x_12_47 + x_12_49 = 0
 c_2_13: - 2 y_13 + x_1_13 + x_2_13 + x_3_13 + x_5_13 + x_7_13 + x_8_13
   + x_9_13 + x_11_13 + x_12_13 + x_13_14 + x_13_16 + x_13_17 + x_13_18
   + x_13_19 + x_13_20 + x_13_21 + x_13_23 + x_13_25 + x_13_27 + x_13_28
   + x_13_30 + x_13_31 + x_13_32 + x_13_33 + x_13_35 + x_13_36 + x_13_37
   + x_13_38 + x_13_39 + x_13_40 + x_13_41 + x_13_42 + x_13_44 + x_13_48
   + x_13_49 = 0
 c_2_14: - 2 y_14 + x_0_14 + x_2_14 + x_3_14 + x_4_14 + x_6_14 + x_7_14
   + x_8_14 + x_9_14 + x_10_14 + x_11_14 + x_12_14 + x_13_14 + x_14_15
   + x_14_16 + x_14_17 + x_14_18 + x_14_21 + x_14_22 + x_14_23 + x_14_24
   + x_14_25 + x_14_26 + x_14_27 + x_14_28 + x_14_30 + x_14_31 + x_14_33
   + x_14_34 + x_14_35 + x_14_36 + x_14_37 + x_14_39 + x_14_41 + x_14_42
   + x_14_44 + x_14_45 + x_14_48 + x_14_49 = 0
 c_2_15: - 2 y_15 + x_1_15 + x_2_15 + x_3_15 + x_5_15 + x_8_15 + x_10_15
   + x_11_15 + x_12_15 + x_14_15 + x_15_16 + x_15_17 + x_15_22 + x_15_25
   + x_15_26 + x_15_27 + x_15_28 + x_15_29 + x_15_31 + x_15_33 + x_15_34
   + x_15_35 + x_15_36 + x_15_37 + x_15_38 + x_15_39 + x_15_40 + x_15_42
   + x_15_43 + x_15_45 + x_15_47 + x_15_48 + x_15_49 = 0
 c_2_16: - 2 y_16 + x_0_16 + x_2_16 + x_3_16 + x_4_16 + x_6_16 + x_7_16
   + x_10_16 + x_11_16 + x_13_16 + x_14_16 + x_15_16 + x_16_19 + x_16_24
   + x_16_25 + x_16_26 + x_16_27 + x_16_28 + x_16_29 + x_16_30 + x_16_31
   + x_16_32 + x_16_33 + x_16_34 + x_16_35 + x_16_37 + x_16_38 + x_16_39
   + x_16_40 + x_16_41 + x_16_42 + x_16_43 + x_16_44 + x_16_46 + x_16_48
   + x_16_49 = 0
 c_2_17: - 2 y_17 + x_0_17 + x_1_17 + x_2_17 + x_3_17 + x_4_17 + x_7_17
   + x_9_17 + x_10_17 + x_11_17 + x_12_17 + x_13_17 + x_14_17 + x_15_17
   + x_17_18 + x_17_19 + x_17_21 + x_17_22 + x_17_23 + x_17_26 + x_17_28
   + x_17_29 + x_17_30 + x_17_31 + x_17_32 + x_17_33 + x_17_34 + x_17_35
   + x_17_36 + x_17_38 + x_17_40 + x_17_41 + x_17_42 + x_17_44 + x_17_45
   + x_17_46 + x_17_47 + x_17_48 = 0
 c_2_18: - 2 y_18 + x_1_18 + x_3_18 + x_4_18 + x_5_18 + x_6_18 + x_7_18
   + x_10_18 + x_13_18 + x_14_18 + x_17_18 + x_18_19 + x_18_20 + x_18_22
   + x_18_23 + x_18_25 + x_18_26 + x_18_27 + x_18_28 + x_18_29 + x_18_33
   + x_18_34 + x_18_37 + x_18_40 + x_18_42 + x_18_44 + x_18_45 + x_18_47
   + x_18_48 + x_18_49 = 0
 c_2_19: - 2 y_19 + x_1_19 + x_2_19 + x_3_19 + x_4_19 + x_7_19 + x_8_19
   + x_9_19 + x_10_19 + x_11_19 + x_12_19 + x_13_19 + x_16_19 + x_17_19
   + x_18_19 + x_19_20 + x_19_22 + x_19_23 + x_19_24 + x_19_25 + x_19_28
   + x_19_32 + x_19_33 + x_19_34 + x_19_35 + x_19_36 + x_19_37 + x_19_39
   + x_19_40 + x_19_41 + x_19_42 + x_19_43 + x_19_44 + x_19_45 + x_19_48
   = 0
 c_2_20: - 2 y_20 + x_1_20 + x_2_20 + x_3_20 + x_4_20 + x_5_20 + x_6_20
   + x_9_20 + x_10_20 + x_12_20 + x_13_20 + x_18_20 + x_19_20 + x_20_21
   + x_20_22 + x_20_25 + x_20_28 + x_20_29 + x_20_30 + x_20_31 + x_20_32
   + x_20_33 + x_20_34 + x_20_35 + x_20_38 + x_20_39 + x_20_40 + x_20_42
   + x_20_43 + x_20_45 + x_20_46 + x_20_47 + x_20_49 = 0
 c_2_21: - 2 y_21 + x_1_21 + x_2_21 + x_5_21 + x_7_21 + x_8_21 + x_9_21
   + x_10_21 + x_11_21 + x_13_21 + x_14_21 + x_17_21 + x_20_21 + x_21_22
   + x_21_23 + x_21_24 + x_21_25 + x_21_26 + x_21_27 + x_21_29 + x_21_31
   + x_21_33 + x_21_34 + x_21_38 + x_21_40 + x_21_41 + x_21_42 + x_21_43
   + x_21_46 + x_21_47 + x_21_49 = 0
 c_2_22: - 2 y_22 + x_1_22 + x_3_22 + x_6_22 + x_7_22 + x_8_22 + x_9_22
   + x_10_22 + x_11_22 + x_12_22 + x_14_22 + x_15_22 + x_17_22 + x_18_22
   + x_19_22 + x_20_22 + x_21_22 + x_22_23 + x_22_24 + x_22_25 + x_22_28
   + x_22_29 + x_22_30 + x_22_33 + x_22_34 + x_22_36 + x_22_37 + x_22_39
   + x_22_40 + x_22_41 + x_22_42 + x_22_43 + x_22_44 + x_22_45 + x_22_46
   + x_22_47 + x_22_49 = 0
 c_2_23: - 2 y_23 + x_0_23 + x_1_23 + x_2_23 + x_3_23 + x_6_23 + x_7_23
   + x_9_23 + x_10_23 + x_12_23 + x_13_23 + x_14_23 + x_17_23 + x_18_23
   + x_19_23 + x_21_23 + x_22_23 + x_23_27 + x_23_28 + x_23_29 + x_23_30
   + x_23_31 + x_23_32 + x_23_33 + x_23_36 + x_23_37 + x_23_38 + x_23_39
   + x_23_40 + x_23_41 + x_23_43 + x_23_44 + x_23_45 + x_23_47 + x_23_48
   + x_23_49 = 0
 c_2_24: - 2 y_24 + x_1_24 + x_3_24 + x_4_24 + x_6_24 + x_7_24 + x_8_24
   + x_9_24 + x_12_24 + x_14_24 + x_16_24 + x_19_24 + x_21_24 + x_22_24
   + x_24_25 + x_24_26 + x_24_27 + x_24_28 + x_24_30 + x_24_31 + x_24_35
   + x_24_37 + x_24_38 + x_24_40 + x_24_41 + x_24_43 + x_24_44 + x_24_45
   + x_24_46 + x_24_48 + x_24_49 = 0
 c_2_25: - 2 y_25 + x_0_25 + x_2_25 + x_3_25 + x_4_25 + x_5_25 + x_6_25
   + x_7_25 + x_8_25 + x_10_25 + x_13_25 + x_14_25 + x_15_25 + x_16_25
   + x_18_25 + x_19_25 + x_20_25 + x_21_25 + x_22_25 + x_24_25 + x_25_26
   + x_25_27 + x_25_28 + x_25_30 + x_25_31 + x_25_33 + x_25_34 + x_25_35
   + x_25_37 + x_25_38 + x_25_39 + x_25_42 + x_25_43 + x_25_44 + x_25_45
   + x_25_49 = 0
 c_2_26: - 2 y_26 + x_1_26 + x_2_26 + x_3_26 + x_4_26 + x_7_26 + x_8_26
   + x_9_26 + x_10_26 + x_11_26 + x_12_26 + x_14_26 + x_15_26 + x_16_26
   + x_17_26 + x_18_26 + x_21_26 + x_24_26 + x_25_26 + x_26_28 + x_26_29
   + x_26_30 + x_26_34 + x_26_35 + x_26_39 + x_26_41 + x_26_42 + x_26_43
   + x_26_44 + x_26_45 + x_26_46 + x_26_48 + x_26_49 = 0
 c_2_27: - 2 y_27 + x_2_27 + x_3_27 + x_4_27 + x_5_27 + x_7_27 + x_9_27
   + x_10_27 + x_13_27 + x_14_27 + x_15_27 + x_16_27 + x_18_27 + x_21_27
   + x_23_27 + x_24_27 + x_25_27 + x_27_28 + x_27_29 + x_27_30 + x_27_31
   + x_27_32 + x_27_33 + x_27_34 + x_27_35 + x_27_38 + x_27_40 + x_27_43
   + x_27_44 + x_27_46 + x_27_48 + x_27_49 = 0
 c_2_28: - 2 y_28 + x_1_28 + x_3_28 + x_4_28 + x_7_28 + x_11_28 + x_13_28
   + x_14_28 + x_15_28 + x_16_28 + x_17_28 + x_18_28 + x_19_28 + x_20_28
   + x_22_28 + x_23_28 + x_24_28 + x_25_28 + x_26_28 + x_27_28 + x_28_29
   + x_28_31 + x_28_33 + x_28_34 + x_28_38 + x_28_39 + x_28_40 + x_28_41
   + x_28_43 + x_28_44 + x_28_46 + x_28_47 + x_28_49 = 0
 c_2_29: - 2 y_29 + x_0_29 + x_1_29 + x_2_29 + x_3_29 + x_6_29 + x_7_29
   + x_8_29 + x_9_29 + x_10_29 + x_12_29 + x_15_29 + x_16_29 + x_17_29
   + x_18_29 + x_20_29 + x_21_29 + x_22_29 + x_23_29 + x_26_29 + x_27_29
   + x_28_29 + x_29_32 + x_29_34 + x_29_35 + x_29_36 + x_29_40 + x_29_41
   + x_29_42 + x_29_43 + x_29_47 + x_29_49 = 0
 c_2_30: - 2 y_30 + x_0_30 + x_1_30 + x_2_30 + x_5_30 + x_7_30 + x_8_30
   + x_9_30 + x_10_30 + x_11_30 + x_13_30 + x_14_30 + x_16_30 + x_17_30
   + x_20_30 + x_22_30 + x_23_30 + x_24_30 + x_25_30 + x_26_30 + x_27_30
   + x_30_32 + x_30_33 + x_30_35 + x_30_36 + x_30_37 + x_30_39 + x_30_42
   + x_30_43 + x_30_44 + x_30_45 + x_30_46 + x_30_48 + x_30_49 = 0
 c_2_31: - 2 y_31 + x_0_31 + x_1_31 + x_3_31 + x_4_31 + x_5_31 + x_6_31
   + x_7_31 + x_8_31 + x_9_31 + x_11_31 + x_12_31 + x_13_31 + x_14_31
   + x_15_31 + x_16_31 + x_17_31 + x_20_31 + x_21_31 + x_23_31 + x_24_31
   + x_25_31 + x_27_31 + x_28_31 + x_31_33 + x_31_34 + x_31_35 + x_31_36
   + x_31_37 + x_31_38 + x_31_39 + x_31_40 + x_31_43 + x_31_44 + x_31_46
   + x_31_47 + x_31_48 + x_31_49 = 0
 c_2_32: - 2 y_32 + x_0_32 + x_1_32 + x_2_32 + x_3_32 + x_4_32 + x_5_32
   + x_6_32 + x_7_32 + x_8_32 + x_10_32 + x_13_32 + x_16_32 + x_17_32
   + x_19_32 + x_20_32 + x_23_32 + x_27_32 + x_29_32 + x_30_32 + x_32_33
   + x_32_34 + x_32_37 + x_32_38 + x_32_40 + x_32_41 + x_32_43 + x_32_44
   + x_32_45 + x_32_46 + x_32_47 = 0
 c_2_33: - 2 y_33 + x_0_33 + x_1_33 + x_2_33 + x_3_33 + x_4_33 + x_7_33
   + x_8_33 + x_9_33 + x_10_33 + x_11_33 + x_12_33 + x_13_33 + x_14_33
   + x_15_33 + x_16_33 + x_17_33 + x_18_33 + x_19_33 + x_20_33 + x_21_33
   + x_22_33 + x_23_33 + x_25_33 + x_27_33 + x_28_33 + x_30_33 + x_31_33
   + x_32_33 + x_33_35 + x_33_36 + x_33_37 + x_33_38 + x_33_39 + x_33_40
   + x_33_41 + x_33_42 + x_33_46 + x_33_47 + x_33_48 + x_33_49 = 0
 c_2_34: - 2 y_34 + x_0_34 + x_1_34 + x_2_34 + x_3_34 + x_4_34 + x_6_34
   + x_7_34 + x_8_34 + x_10_34 + x_14_34 + x_15_34 + x_16_34 + x_17_34
   + x_18_34 + x_19_34 + x_20_34 + x_21_34 + x_22_34 + x_25_34 + x_26_34
   + x_27_34 + x_28_34 + x_29_34 + x_31_34 + x_32_34 + x_34_35 + x_34_36
   + x_34_37 + x_34_38 + x_34_39 + x_34_42 + x_34_43 + x_34_44 + x_34_45
   + x_34_46 + x_34_47 + x_34_49 = 0
 c_2_35: - 2 y_35 + x_0_35 + x_1_35 + x_2_35 + x_3_35 + x_4_35 + x_5_35
   + x_6_35 + x_7_35 + x_8_35 + x_10_35 + x_12_35 + x_13_35 + x_14_35
   + x_15_35 + x_16_35 + x_17_35 + x_19_35 + x_20_35 + x_24_35 + x_25_35
   + x_26_35 + x_27_35 + x_29_35 + x_30_35 + x_31_35 + x_33_35 + x_34_35
   + x_35_37 + x_35_38 + x_35_39 + x_35_41 + x_35_42 + x_35_43 + x_35_45
   + x_35_47 = 0
 c_2_36: - 2 y_36 + x_0_36 + x_1_36 + x_2_36 + x_3_36 + x_5_36 + x_7_36
   + x_8_36 + x_9_36 + x_10_36 + x_11_36 + x_13_36 + x_14_36 + x_15_36
   + x_17_36 + x_19_36 + x_22_36 + x_23_36 + x_29_36 + x_30_36 + x_31_36
   + x_33_36 + x_34_36 + x_36_38 + x_36_39 + x_36_40 + x_36_41 + x_36_42
   + x_36_43 + x_36_44 + x_36_45 + x_36_46 + x_36_47 + x_36_49 = 0
 c_2_37: - 2 y_37 + x_1_37 + x_2_37 + x_4_37 + x_6_37 + x_8_37 + x_10_37
   + x_13_37 + x_14_37 + x_15_37 + x_16_37 + x_18_37 + x_19_37 + x_22_37
   + x_23_37 + x_24_37 + x_25_37 + x_30_37 + x_31_37 + x_32_37 + x_33_37
   + x_34_37 + x_35_37 + x_37_38 + x_37_40 + x_37_41 + x_37_42 + x_37_43
   + x_37_44 + x_37_45 + x_37_46 + x_37_47 + x_37_48 + x_37_49 = 0
 c_2_38: - 2 y_38 + x_0_38 + x_2_38 + x_4_38 + x_5_38 + x_7_38 + x_9_38
   + x_12_38 + x_13_38 + x_15_38 + x_16_38 + x_17_38 + x_20_38 + x_21_38
   + x_23_38 + x_24_38 + x_25_38 + x_27_38 + x_28_38 + x_31_38 + x_32_38
   + x_33_38 + x_34_38 + x_35_38 + x_36_38 + x_37_38 + x_38_40 + x_38_42
   + x_38_43 + x_38_44 + x_38_45 + x_38_46 + x_38_47 + x_38_48 = 0
 c_2_39: - 2 y_39 + x_1_39 + x_2_39 + x_3_39 + x_4_39 + x_5_39 + x_6_39
   + x_8_39 + x_10_39 + x_11_39 + x_12_39 + x_13_39 + x_14_39 + x_15_39
   + x_16_39 + x_19_39 + x_20_39 + x_22_39 + x_23_39 + x_25_39 + x_26_39
   + x_28_39 + x_30_39 + x_31_39 + x_33_39 + x_34_39 + x_35_39 + x_36_39
   + x_39_41 + x_39_45 + x_39_46 + x_39_48 = 0
 c_2_40: - 2 y_40 + x_1_40 + x_2_40 + x_3_40 + x_5_40 + x_7_40 + x_9_40
   + x_10_40 + x_11_40 + x_12_40 + x_13_40 + x_15_40 + x_16_40 + x_17_40
   + x_18_40 + x_19_40 + x_20_40 + x_21_40 + x_22_40 + x_23_40 + x_24_40
   + x_27_40 + x_28_40 + x_29_40 + x_31_40 + x_32_40 + x_33_40 + x_36_40
   + x_37_40 + x_38_40 + x_40_41 + x_40_42 + x_40_43 + x_40_44 + x_40_46
   = 0
 c_2_41: - 2 y_41 + x_0_41 + x_2_41 + x_4_41 + x_5_41 + x_6_41 + x_7_41
   + x_9_41 + x_10_41 + x_11_41 + x_13_41 + x_14_41 + x_16_41 + x_17_41
   + x_19_41 + x_21_41 + x_22_41 + x_23_41 + x_24_41 + x_26_41 + x_28_41
   + x_29_41 + x_32_41 + x_33_41 + x_35_41 + x_36_41 + x_37_41 + x_39_41
   + x_40_41 + x_41_42 + x_41_43 + x_41_44 + x_41_45 + x_41_46 + x_41_47
   + x_41_48 + x_41_49 = 0
 c_2_42: - 2 y_42 + x_0_42 + x_1_42 + x_3_42 + x_4_42 + x_6_42 + x_7_42
   + x_10_42 + x_11_42 + x_12_42 + x_13_42 + x_14_42 + x_15_42 + x_16_42
   + x_17_42 + x_18_42 + x_19_42 + x_20_42 + x_21_42 + x_22_42 + x_25_42
   + x_26_42 + x_29_42 + x_30_42 + x_33_42 + x_34_42 + x_35_42 + x_36_42
   + x_37_42 + x_38_42 + x_40_42 + x_41_42 + x_42_43 + x_42_44 + x_42_45
   + x_42_46 + x_42_47 + x_42_48 + x_42_49 = 0
 c_2_43: - 2 y_43 + x_1_43 + x_4_43 + x_5_43 + x_6_43 + x_7_43 + x_8_43
   + x_9_43 + x_10_43 + x_11_43 + x_15_43 + x_16_43 + x_19_43 + x_20_43
   + x_21_43 + x_22_43 + x_23_43 + x_24_43 + x_25_43 + x_26_43 + x_27_43
   + x_28_43 + x_29_43 + x_30_43 + x_31_43 + x_32_43 + x_34_43 + x_35_43
   + x_36_43 + x_37_43 + x_38_43 + x_40_43 + x_41_43 + x_42_43 + x_43_44
   + x_43_45 + x_43_46 + x_43_47 + x_43_48 + x_43_49 = 0
 c_2_44: - 2 y_44 + x_0_44 + x_1_44 + x_4_44 + x_6_44 + x_7_44 + x_8_44
   + x_9_44 + x_11_44 + x_13_44 + x_14_44 + x_16_44 + x_17_44 + x_18_44
   + x_19_44 + x_22_44 + x_23_44 + x_24_44 + x_25_44 + x_26_44 + x_27_44
   + x_28_44 + x_30_44 + x_31_44 + x_32_44 + x_34_44 + x_36_44 + x_37_44
   + x_38_44 + x_40_44 + x_41_44 + x_42_44 + x_43_44 + x_44_45 + x_44_46
   + x_44_48 = 0
 c_2_45: - 2 y_45 + x_0_45 + x_1_45 + x_2_45 + x_3_45 + x_4_45 + x_6_45
   + x_7_45 + x_8_45 + x_9_45 + x_10_45 + x_14_45 + x_15_45 + x_17_45
   + x_18_45 + x_19_45 + x_20_45 + x_22_45 + x_23_45 + x_24_45 + x_25_45
   + x_26_45 + x_30_45 + x_32_45 + x_34_45 + x_35_45 + x_36_45 + x_37_45
   + x_38_45 + x_39_45 + x_41_45 + x_42_45 + x_43_45 + x_44_45 + x_45_46
   + x_45_47 + x_45_48 + x_45_49 = 0
 c_2_46: - 2 y_46 + x_0_46 + x_1_46 + x_3_46 + x_4_46 + x_5_46 + x_7_46
   + x_8_46 + x_9_46 + x_10_46 + x_12_46 + x_16_46 + x_17_46 + x_20_46
   + x_21_46 + x_22_46 + x_24_46 + x_26_46 + x_27_46 + x_28_46 + x_30_46
   + x_31_46 + x_32_46 + x_33_46 + x_34_46 + x_36_46 + x_37_46 + x_38_46
   + x_39_46 + x_40_46 + x_41_46 + x_42_46 + x_43_46 + x_44_46 + x_45_46
   + x_46_47 + x_46_48 + x_46_49 = 0
 c_2_47: - 2 y_47 + x_0_47 + x_2_47 + x_3_47 + x_4_47 + x_7_47 + x_8_47
   + x_11_47 + x_12_47 + x_15_47 + x_17_47 + x_18_47 + x_20_47 + x_21_47
   + x_22_47 + x_23_47 + x_28_47 + x_29_47 + x_31_47 + x_32_47 + x_33_47
   + x_34_47 + x_35_47 + x_36_47 + x_37_47 + x_38_47 + x_41_47 + x_42_47
   + x_43_47 + x_45_47 + x_46_47 + x_47_48 + x_47_49 = 0
 c_2_48: - 2 y_48 + x_1_48 + x_2_48 + x_5_48 + x_6_48 + x_7_48 + x_8_48
   + x_9_48 + x_10_48 + x_11_48 + x_13_48 + x_14_48 + x_15_48 + x_16_48
   + x_17_48 + x_18_48 + x_19_48 + x_23_48 + x_24_48 + x_26_48 + x_27_48
   + x_30_48 + x_31_48 + x_33_48 + x_37_48 + x_38_48 + x_39_48 + x_41_48
   + x_42_48 + x_43_48 + x_44_48 + x_45_48 + x_46_48 + x_47_48 + x_48_49
   = 0
 c_2_49: - 2 y_49 + x_0_49 + x_1_49 + x_3_49 + x_4_49 + x_5_49 + x_6_49
   + x_7_49 + x_9_49 + x_10_49 + x_12_49 + x_13_49 + x_14_49 + x_15_49
   + x_16_49 + x_18_49 + x_20_49 + x_21_49 + x_22_49 + x_23_49 + x_24_49
   + x_25_49 + x_26_49 + x_27_49 + x_28_49 + x_29_49 + x_30_49 + x_31_49
   + x_33_49 + x_34_49 + x_36_49 + x_37_49 + x_41_49 + x_42_49 + x_43_49
   + x_45_49 + x_46_49 + x_47_49 + x_48_49 = 0
Bounds
 Constant = 1
Binaries
 y_0 y_1 y_2 y_3 y_4 y_5 y_6 y_7 y_8 y_9 y_10 y_11 y_12 y_13 y_14 y_15 y_16
 y_17 y_18 y_19 y_20 y_21 y_22 y_23 y_24 y_25 y_26 y_27 y_28 y_29 y_30 y_31
 y_32 y_33 y_34 y_35 y_36 y_37 y_38 y_39 y_40 y_41 y_42 y_43 y_44 y_45 y_46
 y_47 y_48 y_49 x_0_4 x_0_5 x_0_6 x_0_7 x_0_8 x_0_9 x_0_10 x_0_11 x_0_14
 x_0_16 x_0_17 x_0_23 x_0_25 x_0_29 x_0_30 x_0_31 x_0_32 x_0_33 x_0_34
 x_0_35 x_0_36 x_0_38 x_0_41 x_0_42 x_0_44 x_0_45 x_0_46 x_0_47 x_0_49
 x_1_3 x_1_6 x_1_7 x_1_8 x_1_10 x_1_11 x_1_13 x_1_15 x_1_17 x_1_18 x_1_19
 x_1_20 x_1_21 x_1_22 x_1_23 x_1_24 x_1_26 x_1_28 x_1_29 x_1_30 x_1_31
 x_1_32 x_1_33 x_1_34 x_1_35 x_1_36 x_1_37 x_1_39 x_1_40 x_1_42 x_1_43
 x_1_44 x_1_45 x_1_46 x_1_48 x_1_49 x_2_3 x_2_4 x_2_6 x_2_7 x_2_8 x_2_10
 x_2_12 x_2_13 x_2_14 x_2_15 x_2_16 x_2_17 x_2_19 x_2_20 x_2_21 x_2_23
 x_2_25 x_2_26 x_2_27 x_2_29 x_2_30 x_2_32 x_2_33 x_2_34 x_2_35 x_2_36
 x_2_37 x_2_38 x_2_39 x_2_40 x_2_41 x_2_45 x_2_47 x_2_48 x_3_4 x_3_6 x_3_7
 x_3_8 x_3_9 x_3_10 x_3_11 x_3_12 x_3_13 x_3_14 x_3_15 x_3_16 x_3_17 x_3_18
 x_3_19 x_3_20 x_3_22 x_3_23 x_3_24 x_3_25 x_3_26 x_3_27 x_3_28 x_3_29
 x_3_31 x_3_32 x_3_33 x_3_34 x_3_35 x_3_36 x_3_39 x_3_40 x_3_42 x_3_45
 x_3_46 x_3_47 x_3_49 x_4_5 x_4_7 x_4_8 x_4_9 x_4_11 x_4_12 x_4_14 x_4_16
 x_4_17 x_4_18 x_4_19 x_4_20 x_4_24 x_4_25 x_4_26 x_4_27 x_4_28 x_4_31
 x_4_32 x_4_33 x_4_34 x_4_35 x_4_37 x_4_38 x_4_39 x_4_41 x_4_42 x_4_43
 x_4_44 x_4_45 x_4_46 x_4_47 x_4_49 x_5_6 x_5_7 x_5_8 x_5_10 x_5_12 x_5_13
 x_5_15 x_5_18 x_5_20 x_5_21 x_5_25 x_5_27 x_5_30 x_5_31 x_5_32 x_5_35
 x_5_36 x_5_38 x_5_39 x_5_40 x_5_41 x_5_43 x_5_46 x_5_48 x_5_49 x_6_7 x_6_8
 x_6_9 x_6_11 x_6_12 x_6_14 x_6_16 x_6_18 x_6_20 x_6_22 x_6_23 x_6_24
 x_6_25 x_6_29 x_6_31 x_6_32 x_6_34 x_6_35 x_6_37 x_6_39 x_6_41 x_6_42
 x_6_43 x_6_44 x_6_45 x_6_48 x_6_49 x_7_8 x_7_9 x_7_10 x_7_12 x_7_13 x_7_14
 x_7_16 x_7_17 x_7_18 x_7_19 x_7_21 x_7_22 x_7_23 x_7_24 x_7_25 x_7_26
 x_7_27 x_7_28 x_7_29 x_7_30 x_7_31 x_7_32 x_7_33 x_7_34 x_7_35 x_7_36
 x_7_38 x_7_40 x_7_41 x_7_42 x_7_43 x_7_44 x_7_45 x_7_46 x_7_47 x_7_48
 x_7_49 x_8_9 x_8_10 x_8_11 x_8_12 x_8_13 x_8_14 x_8_15 x_8_19 x_8_21
 x_8_22 x_8_24 x_8_25 x_8_26 x_8_29 x_8_30 x_8_31 x_8_32 x_8_33 x_8_34
 x_8_35 x_8_36 x_8_37 x_8_39 x_8_43 x_8_44 x_8_45 x_8_46 x_8_47 x_8_48
 x_9_10 x_9_11 x_9_12 x_9_13 x_9_14 x_9_17 x_9_19 x_9_20 x_9_21 x_9_22
 x_9_23 x_9_24 x_9_26 x_9_27 x_9_29 x_9_30 x_9_31 x_9_33 x_9_36 x_9_38
 x_9_40 x_9_41 x_9_43 x_9_44 x_9_45 x_9_46 x_9_48 x_9_49 x_10_11 x_10_12
 x_10_14 x_10_15 x_10_16 x_10_17 x_10_18 x_10_19 x_10_20 x_10_21 x_10_22
 x_10_23 x_10_25 x_10_26 x_10_27 x_10_29 x_10_30 x_10_32 x_10_33 x_10_34
 x_10_35 x_10_36 x_10_37 x_10_39 x_10_40 x_10_41 x_10_42 x_10_43 x_10_45
 x_10_46 x_10_48 x_10_49 x_11_12 x_11_13 x_11_14 x_11_15 x_11_16 x_11_17
 x_11_19 x_11_21 x_11_22 x_11_26 x_11_28 x_11_30 x_11_31 x_11_33 x_11_36
 x_11_39 x_11_40 x_11_41 x_11_42 x_11_43 x_11_44 x_11_47 x_11_48 x_12_13
 x_12_14 x_12_15 x_12_17 x_12_19 x_12_20 x_12_22 x_12_23 x_12_24 x_12_26
 x_12_29 x_12_31 x_12_33 x_12_35 x_12_38 x_12_39 x_12_40 x_12_42 x_12_46
 x_12_47 x_12_49 x_13_14 x_13_16 x_13_17 x_13_18 x_13_19 x_13_20 x_13_21
 x_13_23 x_13_25 x_13_27 x_13_28 x_13_30 x_13_31 x_13_32 x_13_33 x_13_35
 x_13_36 x_13_37 x_13_38 x_13_39 x_13_40 x_13_41 x_13_42 x_13_44 x_13_48
 x_13_49 x_14_15 x_14_16 x_14_17 x_14_18 x_14_21 x_14_22 x_14_23 x_14_24
 x_14_25 x_14_26 x_14_27 x_14_28 x_14_30 x_14_31 x_14_33 x_14_34 x_14_35
 x_14_36 x_14_37 x_14_39 x_14_41 x_14_42 x_14_44 x_14_45 x_14_48 x_14_49
 x_15_16 x_15_17 x_15_22 x_15_25 x_15_26 x_15_27 x_15_28 x_15_29 x_15_31
 x_15_33 x_15_34 x_15_35 x_15_36 x_15_37 x_15_38 x_15_39 x_15_40 x_15_42
 x_15_43 x_15_45 x_15_47 x_15_48 x_15_49 x_16_19 x_16_24 x_16_25 x_16_26
 x_16_27 x_16_28 x_16_29 x_16_30 x_16_31 x_16_32 x_16_33 x_16_34 x_16_35
 x_16_37 x_16_38 x_16_39 x_16_40 x_16_41 x_16_42 x_16_43 x_16_44 x_16_46
 x_16_48 x_16_49 x_17_18 x_17_19 x_17_21 x_17_22 x_17_23 x_17_26 x_17_28
 x_17_29 x_17_30 x_17_31 x_17_32 x_17_33 x_17_34 x_17_35 x_17_36 x_17_38
 x_17_40 x_17_41 x_17_42 x_17_44 x_17_45 x_17_46 x_17_47 x_17_48 x_18_19
 x_18_20 x_18_22 x_18_23 x_18_25 x_18_26 x_18_27 x_18_28 x_18_29 x_18_33
 x_18_34 x_18_37 x_18_40 x_18_42 x_18_44 x_18_45 x_18_47 x_18_48 x_18_49
 x_19_20 x_19_22 x_19_23 x_19_24 x_19_25 x_19_28 x_19_32 x_19_33 x_19_34
 x_19_35 x_19_36 x_19_37 x_19_39 x_19_40 x_19_41 x_19_42 x_19_43 x_19_44
 x_19_45 x_19_48 x_20_21 x_20_22 x_20_25 x_20_28 x_20_29 x_20_30 x_20_31
 x_20_32 x_20_33 x_20_34 x_20_35 x_20_38 x_20_39 x_20_40 x_20_42 x_20_43
 x_20_45 x_20_46 x_20_47 x_20_49 x_21_22 x_21_23 x_21_24 x_21_25 x_21_26
 x_21_27 x_21_29 x_21_31 x_21_33 x_21_34 x_21_38 x_21_40 x_21_41 x_21_42
 x_21_43 x_21_46 x_21_47 x_21_49 x_22_23 x_22_24 x_22_25 x_22_28 x_22_29
 x_22_30 x_22_33 x_22_34 x_22_36 x_22_37 x_22_39 x_22_40 x_22_41 x_22_42
 x_22_43 x_22_44 x_22_45 x_22_46 x_22_47 x_22_49 x_23_27 x_23_28 x_23_29
 x_23_30 x_23_31 x_23_32 x_23_33 x_23_36 x_23_37 x_23_38 x_23_39 x_23_40
 x_23_41 x_23_43 x_23_44 x_23_45 x_23_47 x_23_48 x_23_49 x_24_25 x_24_26
 x_24_27 x_24_28 x_24_30 x_24_31 x_24_35 x_24_37 x_24_38 x_24_40 x_24_41
 x_24_43 x_24_44 x_24_45 x_24_46 x_24_48 x_24_49 x_25_26 x_25_27 x_25_28
 x_25_30 x_25_31 x_25_33 x_25_34 x_25_35 x_25_37 x_25_38 x_25_39 x_25_42
 x_25_43 x_25_44 x_25_45 x_25_49 x_26_28 x_26_29 x_26_30 x_26_34 x_26_35
 x_26_39 x_26_41 x_26_42 x_26_43 x_26_44 x_26_45 x_26_46 x_26_48 x_26_49
 x_27_28 x_27_29 x_27_30 x_27_31 x_27_32 x_27_33 x_27_34 x_27_35 x_27_38
 x_27_40 x_27_43 x_27_44 x_27_46 x_27_48 x_27_49 x_28_29 x_28_31 x_28_33
 x_28_34 x_28_38 x_28_39 x_28_40 x_28_41 x_28_43 x_28_44 x_28_46 x_28_47
 x_28_49 x_29_32 x_29_34 x_29_35 x_29_36 x_29_40 x_29_41 x_29_42 x_29_43
 x_29_47 x_29_49 x_30_32 x_30_33 x_30_35 x_30_36 x_30_37 x_30_39 x_30_42
 x_30_43 x_30_44 x_30_45 x_30_46 x_30_48 x_30_49 x_31_33 x_31_34 x_31_35
 x_31_36 x_31_37 x_31_38 x_31_39 x_31_40 x_31_43 x_31_44 x_31_46 x_31_47
 x_31_48 x_31_49 x_32_33 x_32_34 x_32_37 x_32_38 x_32_40 x_32_41 x_32_43
 x_32_44 x_32_45 x_32_46 x_32_47 x_33_35 x_33_36 x_33_37 x_33_38 x_33_39
 x_33_40 x_33_41 x_33_42 x_33_46 x_33_47 x_33_48 x_33_49 x_34_35 x_34_36
 x_34_37 x_34_38 x_34_39 x_34_42 x_34_43 x_34_44 x_34_45 x_34_46 x_34_47
 x_34_49 x_35_37 x_35_38 x_35_39 x_35_41 x_35_42 x_35_43 x_35_45 x_35_47
 x_36_38 x_36_39 x_36_40 x_36_41 x_36_42 x_36_43 x_36_44 x_36_45 x_36_46
 x_36_47 x_36_49 x_37_38 x_37_40 x_37_41 x_37_42 x_37_43 x_37_44 x_37_45
 x_37_46 x_37_47 x_37_48 x_37_49 x_38_40 x_38_42 x_38_43 x_38_44 x_38_45
 x_38_46 x_38_47 x_38_48 x_39_41 x_39_45 x_39_46 x_39_48 x_40_41 x_40_42
 x_40_43 x_40_44 x_40_46 x_41_42 x_41_43 x_41_44 x_41_45 x_41_46 x_41_47
 x_41_48 x_41_49 x_42_43 x_42_44 x_42_45 x_42_46 x_42_47 x_42_48 x_42_49
 x_43_44 x_43_45 x_43_46 x_43_47 x_43_48 x_43_49 x_44_45 x_44_46 x_44_48
 x_45_46 x_45_47 x_45_48 x_45_49 x_46_47 x_46_48 x_46_49 x_47_48 x_47_49
 x_48_49
End
